(declare-const phi_y Int)
(declare-const y Int)
(declare-const x Int)
(declare-const |x'| Int)
(declare-const term_to_project_onto0_integralized Int)
(declare-const term_to_project_onto_integralized Int)
(declare-const |y'| Int)
(assert (and (<= (+ (- y) 1) 0) (<= (- x) 0) (<= (+ x -999999) 0)
               (or (and (<= (+ (- x) 50000) 0) (= (+ (- phi_y) y 1) 0))
                     (and (<= (+ x -49999) 0) (= (+ (- phi_y) y) 0)))
               (= (+ |y'| (- phi_y)) 0) (= (+ |x'| (- x) -1) 0)
               (= (+ term_to_project_onto0_integralized (- (+ |x'| (- x)))) 0)
               (= (+ term_to_project_onto_integralized (- (+ |y'| (- y)))) 0)))
(check-sat)